Route #1: 902 66 129 778 604 781 493 524
Route #2: 394 441 40 282 119 23 395 65 728 186
Route #3: 544 278 511 308 191 712 898 979 915 732
Route #4: 615 667 808 926 964 988 277 286 824
Route #5: 488 800 211 359 442 804 715 888 923 355
Route #6: 758 985 884 305 136 410 5 477
Route #7: 941 32 520 357 686 243 499 405 548
Route #8: 306 294 504 766 343 930 756 241 230 169 540
Route #9: 402 456 466 987 31 670 646 263 207
Route #10: 997 87 585 365 120 521 996
Route #11: 836 69 694 796 951 495 420 566 21 583
Route #12: 924 155 224 590 312 702 199 737 873 576 676
Route #13: 638 72 573 337 613 947 588 439 751
Route #14: 130 725 612 904 855 13 78 794 971 628 376 817
Route #15: 183 36 663 714 561 498 438 22 311 893 266
Route #16: 581 933 52 335 368 654 918 530 444 699 59 140
Route #17: 577 533 329 249 945 20 46 689 138 905 225 946
Route #18: 968 745 218 371 643 143 844 956 661
Cost: 244305
